# Solution for model GNN
# Objective value = 3.4761308084592235e-01
input_var_0 0
input_var_1 0
input_var_2 1
input_var_3 0
input_var_4 1
input_var_5 1
input_var_6 1
input_var_7 1
input_var_8 0
input_var_9 1
input_var_10 1
input_var_11 1
input_var_12 1
input_var_13 0
input_var_14 0
input_var_15 1
input_var_16 0
input_var_17 0
input_var_18 0
input_var_19 0
input_var_20 1
input_var_21 1
input_var_22 1
input_var_23 0
input_var_24 1
input_var_25 1
output_var 3.4761308084592235e-01
x_1_0_0 0
s_1_0_0 8.1094765663146973e-01
z_1_0_0 0
x_1_1_0 0
s_1_1_0 1.8320387229323387e-01
z_1_1_0 0
x_1_2_0 0
s_1_2_0 1.0561611051671207e+00
z_1_2_0 0
x_1_3_0 0
s_1_3_0 5.1942476816475391e-01
z_1_3_0 0
x_1_4_0 0
s_1_4_0 2.6234841346740723e-01
z_1_4_0 0
x_1_5_0 6.1111767962574959e-01
s_1_5_0 0
z_1_5_0 1
x_1_6_0 1.2191398321301676e+00
s_1_6_0 0
z_1_6_0 1
x_1_7_0 0
s_1_7_0 3.3733305288478732e-01
z_1_7_0 0
x_1_8_0 0
s_1_8_0 1.4022873481735587e-01
z_1_8_0 0
x_1_9_0 4.9767382163554430e-01
s_1_9_0 0
z_1_9_0 1
x_1_10_0 0
s_1_10_0 4.4450619793497026e-01
z_1_10_0 0
x_1_11_0 1.4571163663640618e+00
s_1_11_0 0
z_1_11_0 1
x_1_12_0 0
s_1_12_0 5.3865199908614159e-01
z_1_12_0 0
x_1_13_0 6.0188418719917536e-01
s_1_13_0 0
z_1_13_0 1
x_1_14_0 0
s_1_14_0 5.3469183761626482e-01
z_1_14_0 0
x_1_15_0 0
s_1_15_0 1.3212818186730146e-01
z_1_15_0 0
x_1_16_0 2.2723163664340973e-01
s_1_16_0 0
z_1_16_0 1
x_1_17_0 8.8839875534176826e-03
s_1_17_0 0
z_1_17_0 1
x_1_18_0 1.0118686035275459e-01
s_1_18_0 0
z_1_18_0 1
x_1_19_0 7.1774684393312782e-01
s_1_19_0 0
z_1_19_0 1
x_1_20_0 6.4705811301246285e-01
s_1_20_0 0
z_1_20_0 1
x_1_21_0 0
s_1_21_0 2.8046465726220049e-01
z_1_21_0 0
x_1_22_0 0
s_1_22_0 9.6661142166703939e-01
z_1_22_0 0
x_1_23_0 0
s_1_23_0 2.3631882295012474e-01
z_1_23_0 0
x_1_24_0 0
s_1_24_0 8.1712565218913369e-01
z_1_24_0 0
x_1_25_0 0
s_1_25_0 3.5114035382866859e-01
z_1_25_0 0
x_1_26_0 0
s_1_26_0 1.3845497914589942e+00
z_1_26_0 0
x_1_27_0 0
s_1_27_0 1.4204783625900745e+00
z_1_27_0 0
x_1_28_0 0.25628662109375
s_1_28_0 0
z_1_28_0 1
x_1_29_0 7.0198491308838129e-01
s_1_29_0 0
z_1_29_0 1
x_1_30_0 0
s_1_30_0 2.1108777541667223e-01
z_1_30_0 0
x_1_31_0 0
s_1_31_0 4.2314434703439474e-01
z_1_31_0 0
x_1_32_0 3.7538584321737289e-02
s_1_32_0 0
z_1_32_0 1
x_1_33_0 0
s_1_33_0 3.7718691676855087e-01
z_1_33_0 0
x_1_34_0 9.2251983284950256e-01
s_1_34_0 0
z_1_34_0 1
x_1_35_0 0
s_1_35_0 1.8129491154104471e-01
z_1_35_0 0
x_1_36_0 6.9416841492056847e-02
s_1_36_0 0
z_1_36_0 1
x_1_37_0 0
s_1_37_0 3.7040420668199658e-01
z_1_37_0 0
x_1_38_0 5.5023495387285948e-01
s_1_38_0 0
z_1_38_0 1
x_1_39_0 0
s_1_39_0 5.9932291880249977e-01
z_1_39_0 0
x_1_40_0 0.35993249155581
s_1_40_0 0
z_1_40_0 1
x_1_41_0 0
s_1_41_0 9.7098422143608332e-01
z_1_41_0 0
x_1_42_0 0
s_1_42_0 9.8000418767333031e-01
z_1_42_0 0
x_1_43_0 2.6491656340658665e-01
s_1_43_0 0
z_1_43_0 1
x_1_44_0 1.0751628754660487e+00
s_1_44_0 0
z_1_44_0 1
x_1_45_0 5.9978219959884882e-01
s_1_45_0 0
z_1_45_0 1
x_1_46_0 0
s_1_46_0 4.8992109484970570e-01
z_1_46_0 0
x_1_47_0 0
s_1_47_0 4.1546946205198765e-01
z_1_47_0 0
x_1_48_0 0
s_1_48_0 0.427540804957971
z_1_48_0 0
x_1_49_0 0.0955748911947012
s_1_49_0 0
z_1_49_0 1
x_1_50_0 5.9190334007143974e-01
s_1_50_0 0
z_1_50_0 1
x_1_51_0 0
s_1_51_0 7.1737065911293030e-01
z_1_51_0 0
x_1_52_0 0
s_1_52_0 7.3084579408168793e-01
z_1_52_0 0
x_1_53_0 0
s_1_53_0 4.4098907802253962e-01
z_1_53_0 0
x_1_54_0 8.5784182697534561e-01
s_1_54_0 0
z_1_54_0 1
x_1_55_0 0
s_1_55_0 1.8875854089856148e-01
z_1_55_0 0
x_1_56_0 8.7329279258847237e-01
s_1_56_0 0
z_1_56_0 1
x_1_57_0 0.0697674285620451
s_1_57_0 0
z_1_57_0 1
x_1_58_0 3.0702659860253334e-01
s_1_58_0 0
z_1_58_0 1
x_1_59_0 0
s_1_59_0 4.2014918755739927e-02
z_1_59_0 0
x_1_60_0 0
s_1_60_0 7.2835347056388855e-01
z_1_60_0 0
x_1_61_0 5.4592234242591076e-01
s_1_61_0 0
z_1_61_0 1
x_1_62_0 1.3322685798630118e+00
s_1_62_0 0
z_1_62_0 1
x_1_63_0 6.3337730406783521e-01
s_1_63_0 0
z_1_63_0 1
x_2_0_0 8.1049792709004764e-01
s_2_0_0 0
z_2_0_0 1
x_2_1_0 0
s_2_1_0 5.9418741590230573e-01
z_2_1_0 0
x_2_2_0 1.6992717832434087e-01
s_2_2_0 0
z_2_2_0 1
x_2_3_0 0
s_2_3_0 1.5711835287301290e-01
z_2_3_0 0
x_2_4_0 5.5095725165725928e-01
s_2_4_0 0
z_2_4_0 1
x_2_5_0 4.8230829252712371e-01
s_2_5_0 0
z_2_5_0 1
x_2_6_0 6.7256956522241762e-01
s_2_6_0 0
z_2_6_0 1
x_2_7_0 0
s_2_7_0 4.2469060260087255e-01
z_2_7_0 0
x_2_8_0 7.7014855510093660e-01
s_2_8_0 0
z_2_8_0 1
x_2_9_0 1.0242562381437272e+00
s_2_9_0 0
z_2_9_0 1
x_2_10_0 0
s_2_10_0 3.0376572308653343e-01
z_2_10_0 0
x_2_11_0 2.0731055275927365e-01
s_2_11_0 0
z_2_11_0 1
x_2_12_0 0
s_2_12_0 3.5879695167671094e-01
z_2_12_0 0
x_2_13_0 1.8699718559531761e-01
s_2_13_0 0
z_2_13_0 1
x_2_14_0 0
s_2_14_0 5.4027656591614548e-01
z_2_14_0 0
x_2_15_0 4.4406542347863831e-01
s_2_15_0 0
z_2_15_0 1
x_2_16_0 0
s_2_16_0 4.5457164197119587e-01
z_2_16_0 0
x_2_17_0 0
s_2_17_0 6.3596780356123372e-01
z_2_17_0 0
x_2_18_0 5.0549984870352849e-01
s_2_18_0 0
z_2_18_0 1
x_2_19_0 0
s_2_19_0 1.6563616236024042e-01
z_2_19_0 0
x_2_20_0 3.9001996312193637e-01
s_2_20_0 0
z_2_20_0 1
x_2_21_0 0
s_2_21_0 3.4514040654198386e-01
z_2_21_0 0
x_2_22_0 0
s_2_22_0 0.381153189315285
z_2_22_0 0
x_2_23_0 2.0294071215189821e-01
s_2_23_0 0
z_2_23_0 1
x_2_24_0 0
s_2_24_0 4.8453970324306639e-01
z_2_24_0 0
x_2_25_0 0
s_2_25_0 2.0619737010800634e-01
z_2_25_0 0
x_2_26_0 0
s_2_26_0 7.1485636609303038e-01
z_2_26_0 0
x_2_27_0 0
s_2_27_0 2.0441511068777868e-01
z_2_27_0 0
x_2_28_0 5.8944586264149695e-02
s_2_28_0 0
z_2_28_0 1
x_2_29_0 1.2887005608176239e-01
s_2_29_0 0
z_2_29_0 1
x_2_30_0 1.0208419372825675e-01
s_2_30_0 0
z_2_30_0 1
x_2_31_0 0
s_2_31_0 7.5110278682536979e-01
z_2_31_0 0
x_2_32_0 0
s_2_32_0 4.2351705851123533e-01
z_2_32_0 0
x_2_33_0 0
s_2_33_0 4.5923414674888441e-01
z_2_33_0 0
x_2_34_0 4.4531229829477315e-01
s_2_34_0 0
z_2_34_0 1
x_2_35_0 6.1309778856366848e-01
s_2_35_0 0
z_2_35_0 1
x_2_36_0 0
s_2_36_0 2.4408677246882229e-01
z_2_36_0 0
x_2_37_0 0
s_2_37_0 3.9995587359133156e-01
z_2_37_0 0
x_2_38_0 0
s_2_38_0 5.4289770887765088e-01
z_2_38_0 0
x_2_39_0 4.3227387988453947e-01
s_2_39_0 0
z_2_39_0 1
x_2_40_0 5.6143731323690993e-01
s_2_40_0 0
z_2_40_0 1
x_2_41_0 0
s_2_41_0 3.4626911246953429e-01
z_2_41_0 0
x_2_42_0 0
s_2_42_0 3.9961704254347241e-01
z_2_42_0 0
x_2_43_0 5.3481195365618772e-01
s_2_43_0 0
z_2_43_0 1
x_2_44_0 5.2166394171003982e-01
s_2_44_0 0
z_2_44_0 1
x_2_45_0 0.357935898839752
s_2_45_0 0
z_2_45_0 1
x_2_46_0 1.1796950987586496e+00
s_2_46_0 0
z_2_46_0 1
x_2_47_0 0
s_2_47_0 6.4545301856848669e-01
z_2_47_0 0
x_2_48_0 0
s_2_48_0 4.3575625614243596e-01
z_2_48_0 0
x_2_49_0 0
s_2_49_0 2.3816918731494488e-01
z_2_49_0 0
x_2_50_0 0
s_2_50_0 7.5829784487251906e-01
z_2_50_0 0
x_2_51_0 7.9677635450972584e-01
s_2_51_0 0
z_2_51_0 1
x_2_52_0 2.6936160263068437e-01
s_2_52_0 0
z_2_52_0 1
x_2_53_0 0
s_2_53_0 4.6264299516162488e-01
z_2_53_0 0
x_2_54_0 0
s_2_54_0 2.6045114035703432e-01
z_2_54_0 0
x_2_55_0 0
s_2_55_0 5.5302751425269414e-01
z_2_55_0 0
x_2_56_0 0
s_2_56_0 5.7744002719162557e-01
z_2_56_0 0
x_2_57_0 8.4363413929775577e-01
s_2_57_0 0
z_2_57_0 1
x_2_58_0 1.4689745939188709e-01
s_2_58_0 0
z_2_58_0 1
x_2_59_0 0
s_2_59_0 2.1456134771175472e-01
z_2_59_0 0
x_2_60_0 4.1678279900426551e-01
s_2_60_0 0
z_2_60_0 1
x_2_61_0 0
s_2_61_0 5.6276946648580040e-01
z_2_61_0 0
x_2_62_0 0
s_2_62_0 7.8534572280297554e-01
z_2_62_0 0
x_2_63_0 0
s_2_63_0 3.9335502397897665e-01
z_2_63_0 0
x_3_0_0 0.978623824397117
s_3_0_0 0
z_3_0_0 1
x_3_1_0 3.8220372766326932e-01
s_3_1_0 0
z_3_1_0 1
x_3_2_0 0
s_3_2_0 2.8918203589107794e-01
z_3_2_0 0
x_3_3_0 0
s_3_3_0 5.4102658685367504e-02
z_3_3_0 0
x_3_4_0 0
s_3_4_0 3.8346805569533471e-01
z_3_4_0 0
x_3_5_0 3.1154397607752804e-01
s_3_5_0 0
z_3_5_0 1
x_3_6_0 3.0369069733783538e-01
s_3_6_0 0
z_3_6_0 1
x_3_7_0 6.7677854776871138e-01
s_3_7_0 0
z_3_7_0 1
x_3_8_0 0
s_3_8_0 2.8063951317406594e-01
z_3_8_0 0
x_3_9_0 3.0244111438394949e-01
s_3_9_0 0
z_3_9_0 1
x_3_10_0 2.4285848464343890e-01
s_3_10_0 0
z_3_10_0 1
x_3_11_0 2.1244738483638442e-01
s_3_11_0 0
z_3_11_0 1
x_3_12_0 1.2174677308199985e-01
s_3_12_0 0
z_3_12_0 1
x_3_13_0 0
s_3_13_0 2.1389932261395955e-01
z_3_13_0 0
x_3_14_0 0
s_3_14_0 5.8893504433245714e-01
z_3_14_0 0
x_3_15_0 3.1599960333598975e-01
s_3_15_0 0
z_3_15_0 1
x_3_16_0 6.7943846001054642e-01
s_3_16_0 0
z_3_16_0 1
x_3_17_0 0
s_3_17_0 3.1905360146872658e-01
z_3_17_0 0
x_3_18_0 0
s_3_18_0 2.3085446236506313e-01
z_3_18_0 0
x_3_19_0 0
s_3_19_0 2.8349463554015258e-01
z_3_19_0 0
x_3_20_0 0
s_3_20_0 3.0983162212390308e-01
z_3_20_0 0
x_3_21_0 0
s_3_21_0 2.7970840459312135e-01
z_3_21_0 0
x_3_22_0 1.3414304949669098e-01
s_3_22_0 0
z_3_22_0 1
x_3_23_0 0.262250316043724
s_3_23_0 0
z_3_23_0 1
x_3_24_0 0
s_3_24_0 2.3118735589815972e-01
z_3_24_0 0
x_3_25_0 0
s_3_25_0 6.4869942034803874e-01
z_3_25_0 0
x_3_26_0 0
s_3_26_0 6.1740627730750319e-01
z_3_26_0 0
x_3_27_0 6.5545933639137466e-01
s_3_27_0 0
z_3_27_0 1
x_3_28_0 1.9776954386960827e-01
s_3_28_0 0
z_3_28_0 1
x_3_29_0 4.3749805341920789e-01
s_3_29_0 0
z_3_29_0 1
x_3_30_0 0
s_3_30_0 0.0751100623865643
z_3_30_0 0
x_3_31_0 0
s_3_31_0 3.5562913287103104e-01
z_3_31_0 0
x_4_0_0 0
s_4_0_0 4.5386867315791957e-01
z_4_0_0 0
x_4_1_0 5.3637977631988243e-01
s_4_1_0 0
z_4_1_0 1
x_4_2_0 0
s_4_2_0 1.2994192406302002e-01
z_4_2_0 0
x_4_3_0 0
s_4_3_0 2.2324023586182482e-01
z_4_3_0 0
x_4_4_0 0
s_4_4_0 1.4863072725835747e-02
z_4_4_0 0
x_4_5_0 6.0736525901666816e-01
s_4_5_0 0
z_4_5_0 1
x_4_6_0 0
s_4_6_0 4.5601524070928878e-01
z_4_6_0 0
x_4_7_0 9.2405088870183033e-02
s_4_7_0 0
z_4_7_0 1
x_4_8_0 0
s_4_8_0 3.4599420367206611e-02
z_4_8_0 0
x_4_9_0 4.9936645250845363e-01
s_4_9_0 0
z_4_9_0 1
x_4_10_0 0
s_4_10_0 3.6803453855003476e-01
z_4_10_0 0
x_4_11_0 2.0754028049197290e-01
s_4_11_0 0
z_4_11_0 1
x_4_12_0 0
s_4_12_0 1.0505393769136530e-01
z_4_12_0 0
x_4_13_0 5.8505120468520866e-01
s_4_13_0 0
z_4_13_0 1
x_4_14_0 2.5010389705660563e-01
s_4_14_0 0
z_4_14_0 1
x_4_15_0 3.8417527195560564e-01
s_4_15_0 0
z_4_15_0 1
